Optimal - objective value 322.00000000
      0 C0000000               1                      50
      1 C0000001               1                      62
      2 C0000002               1                      50
      3 C0000003               1                      49
      4 C0000004               1                      64
      5 C0000005               1                       4
      6 C0000006               1                       8
      7 C0000007               1                      -9
      8 C0000008               1                       2
      9 C0000009               1                      98
     10 C0000010               1                       2
     11 C0000011               1                      26
     12 C0000012               1                      48
     13 C0000013               1                      64
     14 C0000014               1                     -50
     15 C0000015               1                     -50
     16 C0000016               1                     -62
     17 C0000017               1                     -45
     18 C0000018               1                     -62
     19 C0000019               1                      10
     20 C0000020               1                       8
     21 C0000021               1                      -1
     22 C0000022               1                       8
     23 C0000023               1                       2
     24 C0000024               1                      12
     25 C0000025               1                      12
     26 C0000026               1                      12
     27 C0000027               1                      10
      0 X0000000               0                  100000
      1 X0000001               0                       0
      2 X0000002               0                      32
      3 X0000003               0                   99938
      4 X0000004               0                   99938
      5 X0000005               0                   99940
      6 X0000006               0                      76
      7 X0000007               0                      21
      8 X0000008               0                       0
      9 X0000009               0                  100012
     10 X0000010               0                      30
     11 X0000011               0                      30
     12 X0000012               0                      33
     13 X0000013               0                      30
     14 X0000014               0                      60
     15 X0000015               0                  100048
     16 X0000016               0                  100048
     17 X0000017               0                   99986
     18 X0000018               0                   99986
     19 X0000019               0                   99986
     20 X0000020               0                   99988
     21 X0000021               0                      10
     22 X0000022               0                  100060
     23 X0000023               0                  100043
     24 X0000024               0                  100060
     25 X0000025               0                   99988
     26 X0000026               0                   99990
     27 X0000027               0                   99999
     28 X0000028               0                   99990
     29 X0000029               1                       0
     30 X0000030               0                  100024
     31 X0000031               0                      38
     32 X0000032               0                      80
     33 X0000033               0                   99962
     34 X0000034               0                   99962
     35 X0000035               0                   99964
     36 X0000036               0                     124
     37 X0000037               0                      68
     38 X0000038               0                      43
     39 X0000039               0                      43
     40 X0000040               0                      78
     41 X0000041               0                      78
     42 X0000042               0                      81
     43 X0000043               0                      78
     44 X0000044               0                     108
     45 X0000045               0                  100002
     46 X0000046               0                       3
     47 X0000047               0                      36
     48 X0000048               0                   99940
     49 X0000049               0                   99940
     50 X0000050               0                   99942
     51 X0000051               0                      80
     52 X0000052               0                      24
     53 X0000053               0                       3
     54 X0000054               0                  100014
     55 X0000055               0                      34
     56 X0000056               0                      34
     57 X0000057               0                      37
     58 X0000058               0                      34
     59 X0000059               0                      64
     60 X0000060               0                   99986
     61 X0000061               0                   99986
     62 X0000062               0                       4
     63 X0000063               0                   99924
     64 X0000064               0                   99924
     65 X0000065               0                   99926
     66 X0000066               0                      48
     67 X0000067               1                       0
     68 X0000068               0                   99981
     69 X0000069               0                   99998
     70 X0000070               0                       2
     71 X0000071               0                       2
     72 X0000072               0                       5
     73 X0000073               0                       2
     74 X0000074               0                      32
     75 X0000075               0                   99988
     76 X0000076               0                   99988
     77 X0000077               0                       2
     78 X0000078               0                   99926
     79 X0000079               0                   99926
     80 X0000080               0                   99928
     81 X0000081               0                      46
     82 X0000082               0                       0
     83 X0000083               0                   99983
     84 X0000084               0                  100000
     85 X0000085               1                       0
     86 X0000086               0                       0
     87 X0000087               0                       3
     88 X0000088               0                       0
     89 X0000089               0                      30
     90 X0000090               0                  100000
     91 X0000091               0                  100000
     92 X0000092               0                      12
     93 X0000093               0                   99938
     94 X0000094               0                   99938
     95 X0000095               0                   99940
     96 X0000096               0                      56
     97 X0000097               0                  100012
     98 X0000098               0                   99995
     99 X0000099               0                  100012
    100 X0000100               0                      10
    101 X0000101               0                      10
    102 X0000102               0                      13
    103 X0000103               0                      10
    104 X0000104               0                      40
    105 X0000105               0                  100001
    106 X0000106               0                  100001
    107 X0000107               0                      31
    108 X0000108               0                   99939
    109 X0000109               0                   99939
    110 X0000110               0                   99941
    111 X0000111               0                      75
    112 X0000112               0                      21
    113 X0000113               1                       0
    114 X0000114               0                  100013
    115 X0000115               0                      29
    116 X0000116               0                      29
    117 X0000117               0                      32
    118 X0000118               0                      29
    119 X0000119               0                      59
    120 X0000120               0                   99986
    121 X0000121               0                   99986
    122 X0000122               0                       4
    123 X0000123               0                   99924
    124 X0000124               0                   99924
    125 X0000125               0                   99926
    126 X0000126               0                      48
    127 X0000127               0                       0
    128 X0000128               0                   99981
    129 X0000129               0                   99998
    130 X0000130               0                       2
    131 X0000131               0                       2
    132 X0000132               0                       5
    133 X0000133               0                       2
    134 X0000134               0                      32
    135 X0000135               0                  100046
    136 X0000136               0                  100046
    137 X0000137               0                       2
    138 X0000138               0                   99984
    139 X0000139               0                   99984
    140 X0000140               0                   99986
    141 X0000141               0                      46
    142 X0000142               0                  100058
    143 X0000143               0                  100041
    144 X0000144               0                  100058
    145 X0000145               0                       0
    146 X0000146               1                       0
    147 X0000147               0                       5
    148 X0000148               0                       0
    149 X0000149               0                      30
    150 X0000150               0                  100042
    151 X0000151               0                  100042
    152 X0000152               0                       2
    153 X0000153               0                   99980
    154 X0000154               0                   99980
    155 X0000155               0                   99982
    156 X0000156               0                      46
    157 X0000157               0                  100054
    158 X0000158               0                  100037
    159 X0000159               0                  100054
    160 X0000160               0                       0
    161 X0000161               0                       0
    162 X0000162               0                       3
    163 X0000163               1                       0
    164 X0000164               0                      30
    165 X0000165               0                  100059
    166 X0000166               0                  100059
    167 X0000167               1                       0
    168 X0000168               0                   99997
    169 X0000169               0                   99997
    170 X0000170               0                   99999
    171 X0000171               0                      37
    172 X0000172               0                  100071
    173 X0000173               0                  100054
    174 X0000174               0                  100071
    175 X0000175               0                       0
    176 X0000176               0                       1
    177 X0000177               0                  100010
    178 X0000178               0                       1
    179 X0000179               0                      21
    180 X0000180               0                  100048
    181 X0000181               0                  100048
    182 X0000182               0                   99986
    183 X0000183               0                   99986
    184 X0000184               0                   99986
    185 X0000185               0                   99988
    186 X0000186               0                      10
    187 X0000187               0                  100060
    188 X0000188               0                  100043
    189 X0000189               0                  100060
    190 X0000190               0                   99988
    191 X0000191               0                   99990
    192 X0000192               0                   99999
    193 X0000193               0                   99990
    194 X0000194               0                       0
    195 X0000195               1                       0
    196 X0000196               0                      30
    197 X0000197               0                      72
    198 X0000198               0                   99890
    199 X0000199               0                   99890
    200 X0000200               0                   99892
    201 X0000201               0                     116
    202 X0000202               0                      60
    203 X0000203               0                      35
    204 X0000204               0                      32
    205 X0000205               0                      70
    206 X0000206               0                      70
    207 X0000207               0                      73
    208 X0000208               0                      70
    209 X0000209               0                     100
    210 X0000210               0                       5
    211 X0000211               0                       6
    212 X0000212               0                     162
    213 X0000213               0                  100024
    214 X0000214               0                       6
    215 X0000215               0                       0
    216 X0000216               0                     196
    217 X0000217               0                      20
    218 X0000218               0                       7
    219 X0000219               0                       0
    220 X0000220               0                     122
    221 X0000221               0                     114
    222 X0000222               0                     157
    223 X0000223               0                     162
    224 X0000224               0                   99952
    225 X0000225               0                   99938
    226 X0000226               0                   99926
    227 X0000227               0                   99986
    228 X0000228               0                   99962
    229 X0000229               0                   99940
    230 X0000230               0                   99924
    231 X0000231               0                       0
    232 X0000232               0                   99938
    233 X0000233               0                   99939
    234 X0000234               0                   99924
    235 X0000235               0                   99984
    236 X0000236               0                   99980
    237 X0000237               0                   99997
    238 X0000238               0                   99986
    239 X0000239               0                   99890
    240 X0000240               1                       0
    241 X0000241               0                       6
    242 X0000242               0                     162
    243 X0000243               0                       0
    244 X0000244               0                       0
    245 X0000245               0                       0
    246 X0000246               0                     196
    247 X0000247               0                      20
    248 X0000248               0                       3
    249 X0000249               0                       0
    250 X0000250               0                     122
    251 X0000251               0                     114
    252 X0000252               0                     157
    253 X0000253               0                     162
    254 X0000254               0                   99890
    255 X0000255               0                       0
    256 X0000256               0                       6
    257 X0000257               0                     162
    258 X0000258               1                       0
    259 X0000259               0                       0
    260 X0000260               0                       0
    261 X0000261               0                     196
    262 X0000262               0                      20
    263 X0000263               0                       3
    264 X0000264               0                       0
    265 X0000265               0                     122
    266 X0000266               0                     114
    267 X0000267               0                     157
    268 X0000268               0                     162
    269 X0000269               0                   99890
    270 X0000270               0                       0
    271 X0000271               0                       6
    272 X0000272               0                     162
    273 X0000273               0                       0
    274 X0000274               1                       0
    275 X0000275               0                       0
    276 X0000276               0                     196
    277 X0000277               0                      20
    278 X0000278               0                       3
    279 X0000279               0                       0
    280 X0000280               0                     122
    281 X0000281               0                     114
    282 X0000282               0                     157
    283 X0000283               0                     162
    284 X0000284               0                   99892
    285 X0000285               0                  100000
    286 X0000286               0                   99988
    287 X0000287               0                     132
    288 X0000288               0                  100024
    289 X0000289               0                  100002
    290 X0000290               0                   99986
    291 X0000291               0                     166
    292 X0000292               1                       0
    293 X0000293               0                  100001
    294 X0000294               0                   99986
    295 X0000295               0                      92
    296 X0000296               0                      84
    297 X0000297               0                     127
    298 X0000298               0                     132
    299 X0000299               0                   99952
    300 X0000300               0                  100012
    301 X0000301               0                  100000
    302 X0000302               0                     126
    303 X0000303               0                  100036
    304 X0000304               0                  100014
    305 X0000305               0                   99998
    306 X0000306               0                     160
    307 X0000307               0                  100012
    308 X0000308               0                  100013
    309 X0000309               0                   99998
    310 X0000310               0                      86
    311 X0000311               0                      78
    312 X0000312               0                     121
    313 X0000313               0                     126
    314 X0000314               0                   99964
    315 X0000315               0                   99995
    316 X0000316               0                   99983
    317 X0000317               0                     117
    318 X0000318               0                  100019
    319 X0000319               0                   99997
    320 X0000320               0                   99981
    321 X0000321               0                     151
    322 X0000322               0                   99995
    323 X0000323               0                   99996
    324 X0000324               0                   99981
    325 X0000325               0                      77
    326 X0000326               0                      69
    327 X0000327               0                     112
    328 X0000328               0                     117
    329 X0000329               0                   99947
    330 X0000330               0                  100012
    331 X0000331               0                       4
    332 X0000332               0                     154
    333 X0000333               0                  100036
    334 X0000334               0                  100014
    335 X0000335               0                       0
    336 X0000336               0                     188
    337 X0000337               0                      17
    338 X0000338               0                  100013
    339 X0000339               1                       0
    340 X0000340               0                     114
    341 X0000341               0                     106
    342 X0000342               0                     149
    343 X0000343               0                     154
    344 X0000344               0                   99964
    345 X0000345               0                   99940
    346 X0000346               0                   99928
    347 X0000347               0                   99988
    348 X0000348               0                   99964
    349 X0000349               0                   99942
    350 X0000350               0                   99926
    351 X0000351               0                       6
    352 X0000352               0                   99940
    353 X0000353               0                   99941
    354 X0000354               0                   99926
    355 X0000355               0                   99986
    356 X0000356               0                   99982
    357 X0000357               0                   99999
    358 X0000358               0                   99988
    359 X0000359               0                   99892
    360 X0000360               0                   99942
    361 X0000361               0                   99930
    362 X0000362               0                   99990
    363 X0000363               0                   99966
    364 X0000364               0                   99944
    365 X0000365               0                   99928
    366 X0000366               0                      10
    367 X0000367               0                   99942
    368 X0000368               0                   99943
    369 X0000369               0                   99928
    370 X0000370               0                   99988
    371 X0000371               0                   99984
    372 X0000372               0                  100001
    373 X0000373               0                   99990
    374 X0000374               0                   99894
    375 X0000375               0                   99951
    376 X0000376               0                   99939
    377 X0000377               0                       0
    378 X0000378               0                   99975
    379 X0000379               0                   99953
    380 X0000380               0                   99937
    381 X0000381               0                      25
    382 X0000382               0                   99951
    383 X0000383               0                   99952
    384 X0000384               0                   99937
    385 X0000385               0                   99997
    386 X0000386               0                   99993
    387 X0000387               0                  100010
    388 X0000388               1                       0
    389 X0000389               0                   99903
    390 X0000390               0                   99942
    391 X0000391               0                   99930
    392 X0000392               0                   99990
    393 X0000393               0                   99966
    394 X0000394               0                   99944
    395 X0000395               0                   99928
    396 X0000396               0                      10
    397 X0000397               0                   99942
    398 X0000398               0                   99943
    399 X0000399               0                   99928
    400 X0000400               0                   99988
    401 X0000401               0                   99984
    402 X0000402               0                  100001
    403 X0000403               0                   99990
    404 X0000404               0                   99894
    405 X0000405               0                   99948
    406 X0000406               0                   99936
    407 X0000407               0                   99996
    408 X0000408               0                   99972
    409 X0000409               0                   99950
    410 X0000410               0                   99934
    411 X0000411               0                       0
    412 X0000412               0                   99948
    413 X0000413               0                   99949
    414 X0000414               0                   99934
    415 X0000415               0                   99994
    416 X0000416               0                   99990
    417 X0000417               0                  100007
    418 X0000418               0                   99996
    419 X0000419               0                   99900
